34
75
59	1
58	1
56	1
55	2
53	2
52	3
51	1
50	1
49	1
48	1
47	4
46	1
44	1
43	1
42	1
41	2
40	2
36	1
34	2
32	3
29	3
28	1
26	1
24	1
23	2
22	1
21	1
16	1
15	1
13	1
11	1
9	1
8	2
7	1
